(set-logic QF_NRA)
(set-info :source |Benchmarks generated from hycomp (https://es-static.fbk.eu/tools/hycomp/). BMC instances of non-linear hybrid automata taken from: Alessandro Cimatti, Sergio Mover, Stefano Tonetta, A quantifier-free SMT encoding of non-linear hybrid automata, FMCAD 2012 and Alessandro Cimatti, Sergio Mover, Stefano Tonetta, Quantier-free encoding of invariants for Hybrid Systems, Formal Methods in System Design. This instance solves a BMC problem of depth 0 and uses the encoding obtained with quantifier elimination using qepcad encoding. Contacts: Sergio Mover (mover@fbk.eu), Stefano Tonetta (tonettas@fbk.eu), Alessandro Cimatti (cimatti@fbk.eu).|)
(set-info :smt-lib-version 2.0)
(set-info :category "industrial")
(set-info :status unsat)
;; MathSAT API call trace
;; generated on Mon Mar 19 10:37:44 2012
(declare-fun train2.EVENT.0__AT0 () Bool)
(declare-fun train2.mode.0__AT0 () Bool)
(declare-fun train1.front_position__AT0 () Real)
(declare-fun train1.speed__AT0 () Real)
(declare-fun train2.event_is_timed__AT0 () Bool)
(declare-fun train2.speed__AT0 () Real)
(declare-fun train2.EVENT.1__AT0 () Bool)
(declare-fun train2.acceleration__AT0 () Real)
(declare-fun train1.EVENT.1__AT0 () Bool)
(declare-fun train1.timer__AT0 () Real)
(declare-fun train1.mode.0__AT0 () Bool)
(declare-fun train1.event_is_timed__AT0 () Bool)
(declare-fun train2.time__AT0 () Real)
(declare-fun train2.delta__AT0 () Real)
(declare-fun train2.timer__AT0 () Real)
(declare-fun train1.time__AT0 () Real)
(declare-fun train1.delta__AT0 () Real)
(declare-fun train2.front_position__AT0 () Real)
(declare-fun train1.EVENT.0__AT0 () Bool)
(declare-fun train1.acceleration__AT0 () Real)
(assert (let ((.def_193 (* train2.acceleration__AT0 train2.delta__AT0)))
(let ((.def_194 (+ train2.speed__AT0 .def_193)))
(let ((.def_195 (<= 0.0 .def_194)))
(let ((.def_81 (<= 0.0 train2.speed__AT0)))
(let ((.def_196 (and .def_81 .def_195)))
(let ((.def_164 (<= 0.0 train2.delta__AT0)))
(let ((.def_165 (not .def_164)))
(let ((.def_197 (or .def_165 .def_196)))
(let ((.def_169 (* 2.0 train2.delta__AT0)))
(let ((.def_170 (* train2.speed__AT0 .def_169)))
(let ((.def_167 (* train2.delta__AT0 train2.delta__AT0)))
(let ((.def_168 (* train2.acceleration__AT0 .def_167)))
(let ((.def_171 (+ .def_168 .def_170)))
(let ((.def_172 (* 2.0 train2.speed__AT0)))
(let ((.def_174 (+ .def_172 .def_171)))
(let ((.def_188 (<= .def_174 0.0 )))
(let ((.def_189 (not .def_188)))
(let ((.def_185 (* train2.acceleration__AT0 .def_172)))
(let ((.def_186 (* train2.speed__AT0 train2.speed__AT0)))
(let ((.def_187 (<= .def_186 .def_185)))
(let ((.def_190 (and .def_187 .def_189)))
(let ((.def_179 (* train2.speed__AT0 train2.delta__AT0)))
(let ((.def_180 (+ .def_172 .def_179)))
(let ((.def_181 (<= 0.0 .def_180)))
(let ((.def_178 (not .def_81)))
(let ((.def_182 (and .def_178 .def_181)))
(let ((.def_175 (<= 0.0 .def_174)))
(let ((.def_183 (and .def_175 .def_182)))
(let ((.def_176 (and .def_81 .def_175)))
(let ((.def_177 (or .def_165 .def_176)))
(let ((.def_184 (or .def_177 .def_183)))
(let ((.def_191 (or .def_184 .def_190)))
(let ((.def_157 (* 5.0 train2.delta__AT0)))
(let ((.def_158 (* train2.acceleration__AT0 .def_157)))
(let ((.def_159 (* 5.0 train2.speed__AT0)))
(let ((.def_161 (+ .def_159 .def_158)))
(let ((.def_162 (<= .def_161 417.0 )))
(let ((.def_80 (<= train2.speed__AT0 (/ 417 5))))
(let ((.def_163 (and .def_80 .def_162)))
(let ((.def_166 (or .def_163 .def_165)))
(let ((.def_192 (and .def_166 .def_191)))
(let ((.def_198 (and .def_192 .def_197)))
(let ((.def_152 (not train2.EVENT.1__AT0)))
(let ((.def_154 (and .def_152 train2.EVENT.0__AT0)))
(let ((.def_155 (not .def_154)))
(let ((.def_199 (or .def_155 .def_198)))
(let ((.def_144 (* train1.acceleration__AT0 train1.delta__AT0)))
(let ((.def_145 (+ train1.speed__AT0 .def_144)))
(let ((.def_146 (<= 0.0 .def_145)))
(let ((.def_53 (<= 0.0 train1.speed__AT0)))
(let ((.def_147 (and .def_53 .def_146)))
(let ((.def_114 (<= 0.0 train1.delta__AT0)))
(let ((.def_115 (not .def_114)))
(let ((.def_148 (or .def_115 .def_147)))
(let ((.def_120 (* 2.0 train1.delta__AT0)))
(let ((.def_121 (* train1.speed__AT0 .def_120)))
(let ((.def_117 (* train1.delta__AT0 train1.delta__AT0)))
(let ((.def_118 (* train1.acceleration__AT0 .def_117)))
(let ((.def_122 (+ .def_118 .def_121)))
(let ((.def_123 (* 2.0 train1.speed__AT0)))
(let ((.def_125 (+ .def_123 .def_122)))
(let ((.def_139 (<= .def_125 0.0 )))
(let ((.def_140 (not .def_139)))
(let ((.def_136 (* train1.acceleration__AT0 .def_123)))
(let ((.def_137 (* train1.speed__AT0 train1.speed__AT0)))
(let ((.def_138 (<= .def_137 .def_136)))
(let ((.def_141 (and .def_138 .def_140)))
(let ((.def_130 (* train1.speed__AT0 train1.delta__AT0)))
(let ((.def_131 (+ .def_123 .def_130)))
(let ((.def_132 (<= 0.0 .def_131)))
(let ((.def_129 (not .def_53)))
(let ((.def_133 (and .def_129 .def_132)))
(let ((.def_126 (<= 0.0 .def_125)))
(let ((.def_134 (and .def_126 .def_133)))
(let ((.def_127 (and .def_53 .def_126)))
(let ((.def_128 (or .def_115 .def_127)))
(let ((.def_135 (or .def_128 .def_134)))
(let ((.def_142 (or .def_135 .def_141)))
(let ((.def_107 (* 5.0 train1.delta__AT0)))
(let ((.def_108 (* train1.acceleration__AT0 .def_107)))
(let ((.def_109 (* 5.0 train1.speed__AT0)))
(let ((.def_111 (+ .def_109 .def_108)))
(let ((.def_112 (<= .def_111 417.0 )))
(let ((.def_52 (<= train1.speed__AT0 (/ 417 5))))
(let ((.def_113 (and .def_52 .def_112)))
(let ((.def_116 (or .def_113 .def_115)))
(let ((.def_143 (and .def_116 .def_142)))
(let ((.def_149 (and .def_143 .def_148)))
(let ((.def_102 (not train1.EVENT.1__AT0)))
(let ((.def_104 (and .def_102 train1.EVENT.0__AT0)))
(let ((.def_105 (not .def_104)))
(let ((.def_150 (or .def_105 .def_149)))
(let ((.def_200 (and .def_150 .def_199)))
(let ((.def_94 (<= train2.acceleration__AT0 0.0 )))
(let ((.def_93 (<= (- (/ 7 5)) train2.acceleration__AT0)))
(let ((.def_95 (and .def_93 .def_94)))
(let ((.def_46 (not train2.mode.0__AT0)))
(let ((.def_96 (or .def_46 .def_95)))
(let ((.def_90 (<= train2.acceleration__AT0 (/ 7 10))))
(let ((.def_89 (<= (- (/ 7 10)) train2.acceleration__AT0)))
(let ((.def_91 (and .def_89 .def_90)))
(let ((.def_92 (or train2.mode.0__AT0 .def_91)))
(let ((.def_97 (and .def_92 .def_96)))
(let ((.def_85 (<= train2.timer__AT0 8.0 )))
(let ((.def_84 (<= 0.0 train2.timer__AT0)))
(let ((.def_86 (and .def_84 .def_85)))
(let ((.def_82 (and .def_80 .def_81)))
(let ((.def_78 (<= 0.0 train2.front_position__AT0)))
(let ((.def_73 (<= train1.acceleration__AT0 0.0 )))
(let ((.def_72 (<= (- (/ 7 5)) train1.acceleration__AT0)))
(let ((.def_74 (and .def_72 .def_73)))
(let ((.def_29 (not train1.mode.0__AT0)))
(let ((.def_75 (or .def_29 .def_74)))
(let ((.def_67 (<= train1.acceleration__AT0 (/ 7 10))))
(let ((.def_66 (<= (- (/ 7 10)) train1.acceleration__AT0)))
(let ((.def_68 (and .def_66 .def_67)))
(let ((.def_69 (or train1.mode.0__AT0 .def_68)))
(let ((.def_76 (and .def_69 .def_75)))
(let ((.def_58 (<= train1.timer__AT0 8.0 )))
(let ((.def_56 (<= 0.0 train1.timer__AT0)))
(let ((.def_59 (and .def_56 .def_58)))
(let ((.def_54 (and .def_52 .def_53)))
(let ((.def_48 (<= 0.0 train1.front_position__AT0)))
(let ((.def_55 (and .def_48 .def_54)))
(let ((.def_60 (and .def_55 .def_59)))
(let ((.def_77 (and .def_60 .def_76)))
(let ((.def_79 (and .def_77 .def_78)))
(let ((.def_83 (and .def_79 .def_82)))
(let ((.def_87 (and .def_83 .def_86)))
(let ((.def_98 (and .def_87 .def_97)))
(let ((.def_43 (= train2.timer__AT0 0.0 )))
(let ((.def_40 (= train2.speed__AT0 0.0 )))
(let ((.def_37 (= train2.front_position__AT0 400.0 )))
(let ((.def_34 (= train2.time__AT0 0.0 )))
(let ((.def_26 (= train1.timer__AT0 0.0 )))
(let ((.def_23 (= train1.speed__AT0 0.0 )))
(let ((.def_20 (= train1.front_position__AT0 0.0 )))
(let ((.def_17 (= train1.time__AT0 0.0 )))
(let ((.def_19 (and .def_17 train1.event_is_timed__AT0)))
(let ((.def_21 (and .def_19 .def_20)))
(let ((.def_24 (and .def_21 .def_23)))
(let ((.def_27 (and .def_24 .def_26)))
(let ((.def_30 (and .def_27 .def_29)))
(let ((.def_32 (and .def_30 train2.event_is_timed__AT0)))
(let ((.def_35 (and .def_32 .def_34)))
(let ((.def_38 (and .def_35 .def_37)))
(let ((.def_41 (and .def_38 .def_40)))
(let ((.def_44 (and .def_41 .def_43)))
(let ((.def_47 (and .def_44 .def_46)))
(let ((.def_99 (and .def_47 .def_98)))
(let ((.def_11 (* (- 1.0) train2.front_position__AT0)))
(let ((.def_12 (+ train1.front_position__AT0 .def_11)))
(let ((.def_13 (<= .def_12 (- 200.0) )))
(let ((.def_14 (not .def_13)))
(let ((.def_100 (and .def_14 .def_99)))
(let ((.def_201 (and .def_100 .def_200)))
.def_201)))))))))))))))))))))))))))))))))))))))))))))))))))))))))))))))))))))))))))))))))))))))))))))))))))))))))))))))))))))))))))))))))))))))))))))))))))))))))))))
(check-sat)
(exit)
